28600 39792 
29111 39462 
29255 39425 
28869 39658 
30180 39291 
28404 39839 
30511 39084 
30819 38836 
30389 39141 
30710 38922 
30569 39041 
31360 38427 
31019 38713 
30890 38822 
30698 38932 
32364 38195 
32410 38168 
31966 38417 
33134 37586 
33099 37607 
32012 38390 
33240 37497 
33407 37359 
